Gurobi 12.0.3:   lim:time = 14400

  mip:bestbound = 1

Set parameter LogToConsole to value 1

  tech:outlev = 1

Set parameter Cuts to value 3

  cut:cuts = 3

Set parameter Presolve to value 2

  pre:solve = 2

Set parameter MIPFocus to value 2

  mip:focus = 2

Set parameter Symmetry to value 2

  mip:symmetry = 2

Set parameter InfUnbdInfo to value 1

Gurobi Optimizer version 12.0.3 build v12.0.3rc0 (win64 - Windows 11.0 (26100.2))



CPU model: 12th Gen Intel(R) Core(TM) i7-12700, instruction set [SSE2|AVX|AVX2]

Thread count: 12 physical cores, 20 logical processors, using up to 20 threads



Non-default parameters:

TimeLimit  14400

MIPFocus  2

Symmetry  2

Cuts  3

InfUnbdInfo  1

Presolve  2



Optimize a model with 368 rows, 443 columns and 2622 nonzeros

Model fingerprint: 0x864ac663

Model has 3 quadratic constraints

Variable types: 30 continuous, 413 integer (0 binary)

Coefficient statistics:

  Matrix range     [1e+00, 1e+05]

  QMatrix range    [1e+00, 1e+00]

  QLMatrix range   [2e+01, 2e+01]

  Objective range  [2e+00, 1e+02]

  Bounds range     [1e+00, 1e+02]

  RHS range        [1e+00, 1e+05]

  QRHS range       [1e+02, 1e+02]

Presolve removed 45 rows and 67 columns

Presolve time: 0.03s

Presolved: 611 rows, 604 columns, 3727 nonzeros

Variable types: 15 continuous, 589 integer (557 binary)

Found heuristic solution: objective 467.7900000

Root relaxation presolve removed 65 rows and 1 columns

Root relaxation presolved: 344 rows, 483 columns, 3297 nonzeros





Root relaxation: objective 1.642167e+02, 57 iterations, 0.00 seconds (0.00 work units)



    Nodes    |    Current Node    |     Objective Bounds      |     Work

 Expl Unexpl |  Obj  Depth IntInf | Incumbent    BestBd   Gap | It/Node Time



     0     0  164.21668    0   38  467.79000  164.21668  64.9%     -    0s

H    0     0                     466.8100000  164.21668  64.8%     -    0s

H    0     0                     367.7700000  164.21668  55.3%     -    0s

     0     0  216.03000    0   22  367.77000  216.03000  41.3%     -    0s

H    0     0                     361.6600000  216.03000  40.3%     -    0s

     0     0  216.03000    0   31  361.66000  216.03000  40.3%     -    0s

     0     0  216.03000    0   25  361.66000  216.03000  40.3%     -    0s

H    0     0                     357.5200000  216.03378  39.6%     -    0s

     0     0  216.06232    0   26  357.52000  216.06232  39.6%     -    0s

     0     0  217.73028    0   26  357.52000  217.73028  39.1%     -    0s

H    0     0                     356.8900000  220.27022  38.3%     -    0s

H    0     0                     327.9700000  231.84065  29.3%     -    0s

     0     0  231.84065    0   35  327.97000  231.84065  29.3%     -    0s

H    0     0                     325.6100000  236.40000  27.4%     -    0s

     0     0  250.77500    0   43  325.61000  250.77500  23.0%     -    0s

     0     0  254.71326    0   24  325.61000  254.71326  21.8%     -    0s

     0     0  257.64527    0   64  325.61000  257.64527  20.9%     -    0s

     0     0  258.24459    0   64  325.61000  258.24459  20.7%     -    0s

     0     2  258.24459    0   64  325.61000  258.24459  20.7%     -    0s



Cutting planes:

  Learned: 6

  Gomory: 24

  Lift-and-project: 5

  Cover: 4

  Implied bound: 27

  Projected implied bound: 1

  Clique: 2

  MIR: 14

  StrongCG: 6

  Flow cover: 95

  GUB cover: 4

  Inf proof: 4

  Zero half: 64

  Mod-K: 1

  RLT: 62

  Relax-and-lift: 9



Explored 2911 nodes (32321 simplex iterations) in 0.98 seconds (0.97 work units)

Thread count was 20 (of 20 available processors)



Solution count 8: 325.61 327.97 356.89 ... 467.79



Optimal solution found (tolerance 1.00e-04)

Best objective 3.256100000000e+02, best bound 3.256100000000e+02, gap 0.0000%



AMPL MP initial flat model has 443 variables (0 integer, 413 binary);

Objectives: 1 linear; 

Constraints:  368 linear; 3 quadratic;



AMPL MP final model has 443 variables (0 integer, 413 binary);

Objectives: 1 linear; 

Constraints:  368 linear; 3 quadratic;





-----RESULTS INFO-----
running_time:  1
TC.best_bound:  325.61
TC:  325.61
MIP Gap (%):  0
=== Vehicle Routes ===
Vehicle 1: 0 → 1
Vehicle 1: 1 → 3
Vehicle 1: 3 → 11
Vehicle 1: 11 → 15
Vehicle 1: 15 → 19
Vehicle 2: 0 → 18
Vehicle 2: 2 → 19
Vehicle 2: 18 → 2
Vehicle 3: 0 → 19

=== Full Vehicle Routes ===
Vehicle 1: 0 → 1 → 3 → 11 → 15 → 0 (87<100)
Vehicle 2: 0 → 18 → 2 → 0 (36<100)
Vehicle 3: 0 → 0 (0<100)
Arc used by MRT line: y variables:
Customer assigment to PL: u variables:
4 18
5 11
6 11
7 18
8 15
9 15
Node is served by regular vehicle: g variables:
1
2
3
18
11
15
Customer assigment to Home delivery: gm variables:
1
2
3
Node total demands: ntd variables:
1 24 1
2 20 1
3 15 1
7 0 0
8 0 0
9 0 0
16 0 0
17 0 0
18 16 1
10 0 0
11 15 1
12 0 0
13 0 0
14 0 0
15 33 1
Customer's demand delivered to PL: l variables:
4
5
6
7
8
9
Lockers load <= capacity:
0 <= 79
0 <= 75
16 <= 82
0 <= 85
15 <= 76
0 <= 85
0 <= 83
0 <= 87
33 <= 97
